Academic license - for non-commercial use only
Gurobi Optimizer version 9.0.3 build v9.0.3rc0 (mac64)
Optimize a model with 207966 rows, 200800 columns and 1151950 nonzeros
Model fingerprint: 0x4e46d991
Variable types: 0 continuous, 200800 integer (200800 binary)
Coefficient statistics:
  Matrix range     [1e+00, 1e+00]
  Objective range  [1e+01, 5e+04]
  Bounds range     [1e+00, 1e+00]
  RHS range        [1e+00, 5e+02]
Presolve added 0 rows and 2950 columns
Presolve removed 50 rows and 0 columns
Presolve time: 3.51s
Presolved: 207916 rows, 203750 columns, 860850 nonzeros
Variable types: 0 continuous, 203750 integer (203750 binary)
Found heuristic solution: objective 1044076.0000

Concurrent LP optimizer: dual simplex and barrier
Showing barrier log only...

Root barrier log...

Ordering time: 0.06s

Barrier statistics:
 Dense cols : 400
 AA' NZ     : 6.668e+05
 Factor NZ  : 2.815e+06 (roughly 200 MBytes of memory)
 Factor Ops : 6.809e+08 (less than 1 second per iteration)
 Threads    : 3

                  Objective                Residual
Iter       Primal          Dual         Primal    Dual     Compl     Time
   0   2.28595390e+08 -2.75258356e+08  5.04e+02 2.88e+01  1.68e+04     6s
   1   2.21542413e+06 -3.46610471e+08  7.73e+00 6.92e+03  7.21e+02     7s
   2   1.39974721e+06 -1.60556771e+08  2.05e+00 2.78e+03  2.93e+02     7s
   3   1.28151006e+06 -7.77059709e+07  1.22e+00 1.26e+03  1.39e+02     7s
   4   1.12261061e+06 -9.49615504e+06  7.94e-02 1.04e+02  1.78e+01     7s
   5   1.09819084e+06 -5.01027611e+05  2.18e-02 2.17e+01  2.66e+00     7s
   6   1.07984820e+06  1.88343263e+05  1.49e-02 1.10e+01  1.48e+00     8s
   7   1.06207017e+06  6.46695668e+05  1.18e-02 4.05e+00  6.85e-01     8s
   8   1.05516207e+06  7.68523750e+05  1.06e-02 2.47e+00  4.72e-01     8s
   9   1.04861210e+06  8.20219299e+05  9.78e-03 1.76e+00  3.75e-01     8s
  10   1.04512509e+06  8.69248893e+05  9.35e-03 1.08e+00  2.88e-01     8s
  11   1.02367333e+06  8.94141400e+05  6.89e-03 7.38e-01  2.12e-01     9s
  12   1.02124439e+06  9.03627479e+05  6.66e-03 6.25e-01  1.92e-01     9s
  13   1.01659581e+06  9.16430272e+05  6.24e-03 4.61e-01  1.64e-01     9s
  14   1.01016835e+06  9.26660130e+05  5.60e-03 3.28e-01  1.36e-01    10s
  15   1.00270909e+06  9.34324518e+05  4.90e-03 2.24e-01  1.11e-01    10s
  16   9.93512856e+05  9.38056856e+05  4.04e-03 1.75e-01  9.03e-02    10s
  17   9.90437642e+05  9.40605440e+05  3.73e-03 1.43e-01  8.11e-02    10s
  18   9.86344859e+05  9.44396898e+05  3.35e-03 9.95e-02  6.82e-02    11s
  19   9.78728038e+05  9.46269524e+05  2.66e-03 7.60e-02  5.28e-02    11s
  20   9.75126250e+05  9.47865268e+05  2.31e-03 5.79e-02  4.43e-02    11s
  21   9.70374568e+05  9.48432046e+05  1.83e-03 5.06e-02  3.57e-02    12s
  22   9.68199767e+05  9.48966649e+05  1.62e-03 4.46e-02  3.13e-02    12s
  23   9.66647520e+05  9.49613197e+05  1.45e-03 3.71e-02  2.77e-02    12s
  24   9.66216627e+05  9.49914325e+05  1.41e-03 3.36e-02  2.65e-02    12s
  25   9.63389379e+05  9.50511976e+05  1.12e-03 2.70e-02  2.09e-02    13s
  26   9.62594847e+05  9.50789164e+05  1.04e-03 2.41e-02  1.92e-02    13s
  27   9.60241812e+05  9.51172502e+05  7.93e-04 2.01e-02  1.47e-02    13s
  28   9.59567204e+05  9.51359198e+05  7.24e-04 1.82e-02  1.33e-02    14s
  29   9.59248359e+05  9.51631266e+05  6.89e-04 1.55e-02  1.24e-02    14s
  30   9.58328324e+05  9.51776156e+05  5.89e-04 1.40e-02  1.06e-02    14s
  31   9.57710927e+05  9.51880093e+05  5.20e-04 1.30e-02  9.47e-03    14s
  32   9.56976120e+05  9.52061029e+05  4.37e-04 1.11e-02  7.98e-03    15s
  33   9.56245199e+05  9.52276836e+05  3.59e-04 8.78e-03  6.44e-03    15s
  34   9.55829704e+05  9.52490060e+05  3.12e-04 6.64e-03  5.42e-03    15s
  35   9.55596040e+05  9.52574656e+05  2.86e-04 5.78e-03  4.90e-03    15s
  36   9.55337385e+05  9.52652562e+05  2.57e-04 4.94e-03  4.36e-03    16s
  37   9.55028776e+05  9.52715434e+05  2.22e-04 4.26e-03  3.75e-03    16s
  38   9.54779596e+05  9.52797492e+05  1.93e-04 3.36e-03  3.21e-03    16s
  39   9.54482827e+05  9.52881648e+05  1.61e-04 2.47e-03  2.60e-03    16s
  40   9.54199897e+05  9.52942558e+05  1.28e-04 1.82e-03  2.04e-03    17s
  41   9.53979156e+05  9.52971862e+05  1.02e-04 1.52e-03  1.63e-03    17s
  42   9.53811478e+05  9.52992638e+05  8.31e-05 1.30e-03  1.33e-03    17s
  43   9.53673448e+05  9.53036782e+05  6.72e-05 8.72e-04  1.03e-03    18s
  44   9.53556259e+05  9.53052722e+05  5.29e-05 7.03e-04  8.16e-04    18s
  45   9.53486248e+05  9.53058420e+05  4.46e-05 6.45e-04  6.93e-04    18s
  46   9.53432758e+05  9.53070372e+05  3.81e-05 5.19e-04  5.87e-04    18s
  47   9.53286992e+05  9.53097084e+05  1.99e-05 2.44e-04  3.08e-04    18s
  48   9.53252299e+05  9.53109676e+05  1.60e-05 1.23e-04  2.31e-04    19s
  49   9.53219791e+05  9.53111564e+05  1.19e-05 1.02e-04  1.75e-04    19s
  50   9.53165942e+05  9.53115973e+05  5.05e-06 6.29e-05  8.10e-05    19s
  51   9.53155634e+05  9.53121110e+05  3.77e-06 2.49e-05  5.58e-05    19s
  52   9.53133469e+05  9.53123700e+05  9.75e-07 2.56e-06  1.58e-05    19s
  53   9.53125017e+05  9.53124457e+05  5.14e-08 1.39e-07  9.08e-07    20s
  54   9.53124520e+05  9.53124520e+05  2.68e-11 4.00e-07  3.64e-10    20s

Barrier solved model in 54 iterations and 19.83 seconds
Optimal objective 9.53124520e+05


Root crossover log...

  125309 DPushes remaining with DInf 0.0000000e+00                20s
    3322 DPushes remaining with DInf 0.0000000e+00                21s
       0 DPushes remaining with DInf 0.0000000e+00                21s

     847 PPushes remaining with PInf 0.0000000e+00                21s
       0 PPushes remaining with PInf 0.0000000e+00                21s

  Push phase complete: Pinf 0.0000000e+00, Dinf 4.9507065e-11     21s


Root simplex log...

Iteration    Objective       Primal Inf.    Dual Inf.      Time
   11248    9.5312452e+05   0.000000e+00   0.000000e+00     21s

Solved with barrier

Root relaxation: objective 9.531245e+05, 11248 iterations, 15.87 seconds

    Nodes    |    Current Node    |     Objective Bounds      |     Work
 Expl Unexpl |  Obj  Depth IntInf | Incumbent    BestBd   Gap | It/Node Time

     0     0 953124.520    0 5195 1044076.00 953124.520  8.71%     -   23s
H    0     0                    956477.00000 953124.520  0.35%     -   26s
H    0     0                    953443.00000 953124.520  0.03%     -   43s
     0     0 953143.023    0 5222 953443.000 953143.023  0.03%     -   50s
     0     0 953143.023    0 4657 953443.000 953143.023  0.03%     -   58s
     0     0 953146.083    0 4724 953443.000 953146.083  0.03%     -   60s
     0     0 953147.877    0 4721 953443.000 953147.877  0.03%     -   61s
     0     0 953153.601    0 4744 953443.000 953153.601  0.03%     -   62s
     0     0 953153.940    0 4738 953443.000 953153.940  0.03%     -   63s
     0     0 953256.000    0 4750 953443.000 953256.000  0.02%     -   65s
     0     0 953256.000    0 4748 953443.000 953256.000  0.02%     -   65s
     0     0 953256.000    0 4747 953443.000 953256.000  0.02%     -   65s
     0     0 953322.125    0 4779 953443.000 953322.125  0.01%     -   67s
     0     0 953366.680    0 4628 953443.000 953366.680  0.01%     -   67s

Cutting planes:
  Gomory: 8
  Zero half: 106

Explored 1 nodes (22009 simplex iterations) in 67.97 seconds
Thread count was 8 (of 8 available processors)

Solution count 4: 953443 953443 956477 1.04408e+06 

Optimal solution found (tolerance 1.00e-04)
Best objective 9.534430000000e+05, best bound 9.533666798561e+05, gap 0.0080%

User-callback calls 9001, time in user-callback 0.08 sec
Solution written to /Users/mdeboute/Desktop/Etudes/Master/M2/S9/GOPP/Projet/multi-period-flp/solution/instMulti_I50_J500_T8_1_result.txt
